100
1000
617
617
610
608
606
604
600
597
588
585
584
578
568
564
555
552
533
531
531
521
506
500
494
486
485
476
475
474
471
468
462
450
446
445
440
419
418
409
407
401
398
394
393
387
372
370
367
361
360
351
345
339
319
316
313
304
299
297
294
279
275
275
258
257
252
251
247
246
246
223
220
215
213
213
212
207
206
200
191
181
174
166
163
160
156
149
144
144
133
131
131
114
84
77
75
60
57
54
44
35
